32 20
1 280
14 776
3 185
12 293
6 206
4 135
4 31
10 199
2 298
14 505
12 108
18 177
9 895
10 98
1 43
3 723
15 764
14 210
15 95
2 815
15 842
10 114
3 483
3 433
11 456
16 974
7 557
2 845
14 866
17 430
15 350
8 271
